/* Objective function */
min: - 0.0054fpdi - 0.0054fpdo + 0.05apdi + 0.05apdo + 0.0002pi + 0.0002po - 0.5fsi - 0.5fso;

apdi = 0.0 hi + -0.0 li + 9.87083 ri + -0.00714 ci + -1.4271 si + 0.0 ti + 0.10857 fTempIi + 0.00831 ami + -111.0731;
asi = 0.0 hi + 0.0 li + -0.0 ri + 0.0 ci + 0.0 si + 0.0 ti + -0.0 fTempIi + 0.0001 ami + -0.00214;
aTempOi = 0.0 hi + -0.0 li + 0.2856 ri + -0.0625 ci + -0.04355 si + 0.0 ti + 0.78156 fTempIi + -0.00029 ami + 6.81521;
fpdi = 0.0 hi + 0.0 li + 29.81634 ri + -76.36262 ci + -0.05254 si + -0.0 ti + -1.55755 fTempIi + 0.00036 ami + 828.80684;
fsi = 0.0 hi + 0.0 li + -0.0 ri + -0.15 ci + -0.0 si + -0.0 ti + -0.0 fTempIi + 0.0 ami + 3.12;
fTempOi = 0.0 hi + -0.0 li + -0.28406 ri + 0.0619 ci + 0.04329 si + 0.0 ti + 0.23051 fTempIi + -0.00027 ami + 9.98065;
pi = 0.0 hi + -0.0 li + 297.53125 ri + 2.8 ci + -28.982 si + 0.0 ti + -0.0 fTempIi + -0.0 ami + 1398.8275;

apdo = 0.0 ho + -0.0 lo + 9.98554 ro + 0.01036 co + -1.42553 so + 0.0 to + 0.09824 fTempIo + 0.00855 amo + -114.03293;
aso = 0.0 ho + 0.0 lo + 0.0 ro + -0.0 co + -0.0 so + 0.0 to + 0.0 fTempIo + 0.0001 amo + -0.00214;
aTempOo = 0.0 ho + -0.0 lo + -0.32638 ro + 0.07274 co + 0.04432 so + 0.0 to + 0.73392 fTempIo + 0.00031 amo + 0.10483;
fpdo = 0.0 ho + 0.0 lo + 11.36881 ro + -20.78993 co + 0.02193 so + 0.0 to + -0.64984 fTempIo + -0.00015 amo + 324.76007;
fso = 0.0 ho + 0.0 lo + 0.00014 ro + -0.07346 co + -2e-05 so + 0.0 to + 0.00052 fTempIo + 0.0 amo + 2.18298;
fTempOo = 0.0 ho + -0.0 lo + 0.3227 ro + -0.07146 co + -0.0438 so + 0.0 to + 0.26859 fTempIo + 0.00028 amo + 12.36818;
po = 0.0 ho + -0.0 lo + 297.5375 ro + 2.775 co + -28.9776 so + 0.0 to + 0.0 fTempIo + 0.0 amo + 1398.632;

/* Variable bounds */
aTempOi > 18.6;
1 =r6i + r8i + r10i + r12i + r14i;
ri =6r6i + 8r8i + 10r10i + 12r12i + 14r14i;
1 =s30i + s40i + s50i + s60i;
si =30s30i + 40s40i + 50s50i + 60s60i;
ti = 3;
apdi > 100;
apdi < 300;
asi > 0;
asi < 3;
aTempOi > 5;
aTempOi < 25;
fpdi > 100;
fpdi < 300;
fsi > 0;
fsi < 1.25;
fTempOi > 5;
fTempOi < 25;
pi > 0;
ri > 6;
ri < 14;
ci > 1;
ci < 12;
si > 25;
si < 60;
ti > 1;
ti < 3;
fTempIi > 5;
fTempIi < 25;

/* aTempOo < 11.4; */
1 =r6o + r8o + r10o + r12o + r14o;
ro =6r6o + 8r8o + 10r10o + 12r12o + 14r14o;
1 =s30o + s40o + s50o + s60o;
so =30s30o + 40s40o + 50s50o + 60s60o;
to = 3;
apdo > 100;
apdo < 300;
aso > 0;
aso < 3;
aTempOo > 5;
aTempOo < 25;
fpdo > 100;
fpdo < 300;
fso > 0;
fso < 1.25;
fTempOo > 5;
fTempOo < 25;
po > 0;
ro > 6;
ro < 14;
co > 13;
co < 60;
so > 25;
so < 60;
to > 1;
to < 3;
fTempIo > 5;
fTempIo < 25;
int hi,li,si,ti,ci,ri,ami;
int ho,lo,so,to,co,ro,amo;
bin s25i,s30i,s40i,s50i,s60i,r6i,r8i,r10i,r12i,r14i;
bin s25o,s30o,s40o,s50o,s60o,r6o,r8o,r10o,r12o,r14o;
